NAME /Users/henri/Research/solvers/instances/idol-instances/robust/collection/cbp_Subramanyam_et_al_2020/CapBud_N25_5/models/uncertain_technology_matrix/
ROWS
 N  OBJ
 L  capacity
 L  c_3855
 L  c_3856
 L  c_3857
 L  c_3858
 L  c_3859
 L  c_3860
 L  c_3861
 L  c_3862
 L  c_3863
 L  c_3864
 L  c_3865
 L  c_3866
 L  c_3867
 L  c_3868
 L  c_3869
 L  c_3870
 L  c_3871
 L  c_3872
 L  c_3873
 L  c_3874
 L  c_3875
 L  c_3876
 L  c_3877
 L  c_3878
 L  c_3879
COLUMNS
    MARKER    'MARKER'                 'INTORG'
    x_0        OBJ        -5.90173
    x_0        c_3855     1
    x_0        capacity   1.18035
    x_1        OBJ        -1.41477
    x_1        c_3856     1
    x_1        capacity   0.282953
    x_2        OBJ        -6.02578
    x_2        c_3857     1
    x_2        capacity   1.20516
    x_3        OBJ        -1.19949
    x_3        c_3858     1
    x_3        capacity   0.239899
    x_4        OBJ        -1.25527
    x_4        c_3859     1
    x_4        capacity   0.251054
    x_5        OBJ        -6.33219
    x_5        c_3860     1
    x_5        capacity   1.26644
    x_6        OBJ        -0.995463
    x_6        c_3861     1
    x_6        capacity   0.199093
    x_7        OBJ        -0.788888
    x_7        c_3862     1
    x_7        capacity   0.157778
    x_8        OBJ        -2.80872
    x_8        c_3863     1
    x_8        capacity   0.561745
    x_9        OBJ        -0.736136
    x_9        c_3864     1
    x_9        capacity   0.147227
    x_10       OBJ        -8.68694
    x_10       c_3865     1
    x_10       capacity   1.73739
    x_11       OBJ        -5.84215
    x_11       c_3866     1
    x_11       capacity   1.16843
    x_12       OBJ        -4.37547
    x_12       c_3867     1
    x_12       capacity   0.875094
    x_13       OBJ        -4.44771
    x_13       c_3868     1
    x_13       capacity   0.889542
    x_14       OBJ        -7.93239
    x_14       c_3869     1
    x_14       capacity   1.58648
    x_15       OBJ        -6.83086
    x_15       c_3870     1
    x_15       capacity   1.36617
    x_16       OBJ        -3.87128
    x_16       c_3871     1
    x_16       capacity   0.774256
    x_17       OBJ        -7.23261
    x_17       c_3872     1
    x_17       capacity   1.44652
    x_18       OBJ        -9.77577
    x_18       c_3873     1
    x_18       capacity   1.95515
    x_19       OBJ        -0.180921
    x_19       c_3874     1
    x_19       capacity   0.0361843
    x_20       OBJ        -9.25944
    x_20       c_3875     1
    x_20       capacity   1.85189
    x_21       OBJ        -2.20169
    x_21       c_3876     1
    x_21       capacity   0.440337
    x_22       OBJ        -8.50294
    x_22       c_3877     1
    x_22       capacity   1.70059
    x_23       OBJ        -8.83805
    x_23       c_3878     1
    x_23       capacity   1.76761
    x_24       OBJ        -8.6501
    x_24       c_3879     1
    x_24       capacity   1.73002
    y_0        OBJ        -4.72139
    y_0        c_3855     1
    y_0        capacity   1.18035
    y_1        OBJ        -1.13181
    y_1        c_3856     1
    y_1        capacity   0.282953
    y_2        OBJ        -4.82062
    y_2        c_3857     1
    y_2        capacity   1.20516
    y_3        OBJ        -0.959596
    y_3        c_3858     1
    y_3        capacity   0.239899
    y_4        OBJ        -1.00422
    y_4        c_3859     1
    y_4        capacity   0.251054
    y_5        OBJ        -5.06575
    y_5        c_3860     1
    y_5        capacity   1.26644
    y_6        OBJ        -0.796371
    y_6        c_3861     1
    y_6        capacity   0.199093
    y_7        OBJ        -0.631111
    y_7        c_3862     1
    y_7        capacity   0.157778
    y_8        OBJ        -2.24698
    y_8        c_3863     1
    y_8        capacity   0.561745
    y_9        OBJ        -0.588909
    y_9        c_3864     1
    y_9        capacity   0.147227
    y_10       OBJ        -6.94955
    y_10       c_3865     1
    y_10       capacity   1.73739
    y_11       OBJ        -4.67372
    y_11       c_3866     1
    y_11       capacity   1.16843
    y_12       OBJ        -3.50037
    y_12       c_3867     1
    y_12       capacity   0.875094
    y_13       OBJ        -3.55817
    y_13       c_3868     1
    y_13       capacity   0.889542
    y_14       OBJ        -6.34591
    y_14       c_3869     1
    y_14       capacity   1.58648
    y_15       OBJ        -5.46469
    y_15       c_3870     1
    y_15       capacity   1.36617
    y_16       OBJ        -3.09702
    y_16       c_3871     1
    y_16       capacity   0.774256
    y_17       OBJ        -5.78609
    y_17       c_3872     1
    y_17       capacity   1.44652
    y_18       OBJ        -7.82062
    y_18       c_3873     1
    y_18       capacity   1.95515
    y_19       OBJ        -0.144737
    y_19       c_3874     1
    y_19       capacity   0.0361843
    y_20       OBJ        -7.40755
    y_20       c_3875     1
    y_20       capacity   1.85189
    y_21       OBJ        -1.76135
    y_21       c_3876     1
    y_21       capacity   0.440337
    y_22       OBJ        -6.80235
    y_22       c_3877     1
    y_22       capacity   1.70059
    y_23       OBJ        -7.07044
    y_23       c_3878     1
    y_23       capacity   1.76761
    y_24       OBJ        -6.92008
    y_24       c_3879     1
    y_24       capacity   1.73002
    MARKER    'MARKER'                 'INTEND'
RHS
    RHS       capacity   62.0434
    RHS       c_3855     1
    RHS       c_3856     1
    RHS       c_3857     1
    RHS       c_3858     1
    RHS       c_3859     1
    RHS       c_3860     1
    RHS       c_3861     1
    RHS       c_3862     1
    RHS       c_3863     1
    RHS       c_3864     1
    RHS       c_3865     1
    RHS       c_3866     1
    RHS       c_3867     1
    RHS       c_3868     1
    RHS       c_3869     1
    RHS       c_3870     1
    RHS       c_3871     1
    RHS       c_3872     1
    RHS       c_3873     1
    RHS       c_3874     1
    RHS       c_3875     1
    RHS       c_3876     1
    RHS       c_3877     1
    RHS       c_3878     1
    RHS       c_3879     1
BOUNDS
 LI BND       x_0        0
 UI BND       x_0        1
 LI BND       x_1        0
 UI BND       x_1        1
 LI BND       x_2        0
 UI BND       x_2        1
 LI BND       x_3        0
 UI BND       x_3        1
 LI BND       x_4        0
 UI BND       x_4        1
 LI BND       x_5        0
 UI BND       x_5        1
 LI BND       x_6        0
 UI BND       x_6        1
 LI BND       x_7        0
 UI BND       x_7        1
 LI BND       x_8        0
 UI BND       x_8        1
 LI BND       x_9        0
 UI BND       x_9        1
 LI BND       x_10       0
 UI BND       x_10       1
 LI BND       x_11       0
 UI BND       x_11       1
 LI BND       x_12       0
 UI BND       x_12       1
 LI BND       x_13       0
 UI BND       x_13       1
 LI BND       x_14       0
 UI BND       x_14       1
 LI BND       x_15       0
 UI BND       x_15       1
 LI BND       x_16       0
 UI BND       x_16       1
 LI BND       x_17       0
 UI BND       x_17       1
 LI BND       x_18       0
 UI BND       x_18       1
 LI BND       x_19       0
 UI BND       x_19       1
 LI BND       x_20       0
 UI BND       x_20       1
 LI BND       x_21       0
 UI BND       x_21       1
 LI BND       x_22       0
 UI BND       x_22       1
 LI BND       x_23       0
 UI BND       x_23       1
 LI BND       x_24       0
 UI BND       x_24       1
 LI BND       y_0        0
 UI BND       y_0        1
 LI BND       y_1        0
 UI BND       y_1        1
 LI BND       y_2        0
 UI BND       y_2        1
 LI BND       y_3        0
 UI BND       y_3        1
 LI BND       y_4        0
 UI BND       y_4        1
 LI BND       y_5        0
 UI BND       y_5        1
 LI BND       y_6        0
 UI BND       y_6        1
 LI BND       y_7        0
 UI BND       y_7        1
 LI BND       y_8        0
 UI BND       y_8        1
 LI BND       y_9        0
 UI BND       y_9        1
 LI BND       y_10       0
 UI BND       y_10       1
 LI BND       y_11       0
 UI BND       y_11       1
 LI BND       y_12       0
 UI BND       y_12       1
 LI BND       y_13       0
 UI BND       y_13       1
 LI BND       y_14       0
 UI BND       y_14       1
 LI BND       y_15       0
 UI BND       y_15       1
 LI BND       y_16       0
 UI BND       y_16       1
 LI BND       y_17       0
 UI BND       y_17       1
 LI BND       y_18       0
 UI BND       y_18       1
 LI BND       y_19       0
 UI BND       y_19       1
 LI BND       y_20       0
 UI BND       y_20       1
 LI BND       y_21       0
 UI BND       y_21       1
 LI BND       y_22       0
 UI BND       y_22       1
 LI BND       y_23       0
 UI BND       y_23       1
 LI BND       y_24       0
 UI BND       y_24       1
ENDATA
